!File created by the GAMESS Input Deck Generator Plugin for Avogadro
 $BASIS GBASIS=STO NGAUSS=3 $END
 $CONTRL SCFTYP=RHF RUNTYP=IRC  $END
 $STATPT HESS=READ ihrep=5 $END
 $irc npoint=100 saddle=.t. tsengy=.t. forwrd=.t. opttol=0.0005 stride=0.1 $end
 
$DATA 
Title
C1
C     6.0     4.56714916    -0.19752574     2.27219272
C     6.0     3.33841825    -0.72053343     1.83220744
C     6.0     2.14847660    -0.10798633     2.25916433
C     6.0     2.21098256     1.73036563     1.66773689
C     6.0     3.44357848     1.89482951     1.01295996
C     6.0     4.59238529     1.67478907     1.79647422
C     6.0     4.54409695     2.30665851     3.16993546
C     6.0     3.40801692     2.66098523     3.73331594
C     6.0     2.08767581     2.43217087     3.03264832
O     8.0     1.01151001     2.76997447     3.50518012
H     1.0     5.46606302    -0.60453403     1.82001638
H     1.0     4.68248701    -0.04304959     3.33865190
H     1.0     3.32532835    -1.19220150     0.85634255
H     1.0     2.05669641     0.09110365     3.32079625
H     1.0     1.21900082    -0.46858490     1.83099473
H     1.0     1.31059480     1.82645822     1.06713486
H     1.0     3.49804664     1.73389220    -0.05675564
H     1.0     5.55678749     1.76881337     1.30563247
H     1.0     5.49290466     2.45728612     3.67340207
H     1.0     3.36910200     3.14107418     4.70223236
 $END

 $HESS
ENERGY IS     -416.0940647116 E(NUC) IS      511.4290428818
 1  1 9.03196200E-01-1.18124056E-01 2.75605082E-02-3.37786142E-01-1.09190504E-01
 1  2-1.21669044E-01-8.06881641E-02 6.80565704E-02-1.50474822E-02-4.38584161E-02
 1  3-5.97063932E-02 3.53291240E-02 7.03431372E-02-8.02988006E-03 1.10048322E-02
 1  4-7.89584802E-02 9.46843963E-02-3.74897082E-02 1.37326219E-03-6.51818032E-03
 1  5-1.99921332E-03-2.36246473E-03-4.08874035E-04 2.15753056E-03-1.34178685E-03
 1  6 7.04507543E-03-3.92287060E-03 3.74744098E-04-9.79518405E-04 1.46370947E-03
 1  7-3.44289617E-01 1.37316012E-01 1.30039618E-01-8.71634059E-02 1.73717547E-02
 1  8-4.00858567E-02 1.54411536E-03 1.13305889E-03 7.94623137E-03 3.13056499E-04
 1  9-8.26737527E-03 1.75491878E-03-4.64505680E-03 7.23927810E-04 3.93227995E-03
 1 10 2.11370629E-03 4.36614641E-03-2.28285087E-04 2.99184452E-04 6.51947184E-04
 1 11-2.66259136E-03 8.06690209E-04-2.11551409E-02 2.99154782E-03 3.16882059E-04
 1 12 7.06840893E-05-6.39186216E-04 4.12952236E-04 9.62156021E-04-4.36611558E-04
 2  1-1.18124056E-01 1.58438665E-01 2.12378483E-01 6.21677337E-02-1.10489857E-01
 2  2-7.40247703E-02-5.60784073E-02 1.51572185E-01 7.49147332E-03-7.40999910E-02
 2  3-1.07727995E-01 6.93288118E-02 1.71025301E-01-4.05387151E-02 3.01686226E-02
 2  4-8.60065987E-02 1.58818957E-01-8.80354019E-02 7.30470075E-03-4.67074323E-02
 2  5-1.55577459E-02-1.00525785E-02-2.28725151E-03 6.21951329E-03 7.02332396E-04
 2  6 9.61572893E-03-4.85393889E-03-1.75555113E-03-7.81143705E-04 3.44564190E-03
 2  7 1.19510774E-01-1.05934419E-01-7.33282855E-02-3.93723066E-03-3.17279536E-02
 2  8-7.51327307E-02-1.50169341E-02-2.30487828E-04-1.44823392E-03-2.50721203E-03
 2  9-1.96394303E-02 4.17557271E-03 4.08421179E-03-3.35880596E-03-8.32651213E-04
 2 10 5.32814454E-04 6.67976046E-03-2.29549452E-04-8.36616076E-04-1.06884417E-04
 2 11-1.05214350E-03 2.78546170E-03-2.08709715E-02 2.65859931E-03 9.50825693E-06
 2 12 1.83649611E-03-3.64249886E-05 2.92264629E-04 3.44207978E-03-1.33464061E-03
 3  1 2.75605082E-02 2.12378483E-01 8.25081292E-01-9.99999610E-02-7.94624068E-02
 3  2-1.87170309E-01 1.20820304E-02 1.28179920E-02 1.27294057E-02 5.82291870E-04
 3  3-2.88800568E-03 9.52955536E-04-1.20443476E-02 1.20191661E-02-3.66110843E-03
 3  4 8.45136637E-03-7.20532276E-03-4.00458053E-02-7.76200695E-04-1.00046148E-02
 3  5 5.21443341E-03 2.39414400E-03-4.68687503E-04-1.35104986E-03-1.79004730E-03
 3  6-2.08433719E-04-1.94809133E-03 1.11645098E-03 1.92603816E-04-6.51607540E-06
 3  7 1.35598291E-01-7.38745849E-02-1.51240041E-01-3.63165529E-02-5.51248434E-02
 3  8-4.57176212E-01-3.91093730E-02-1.44407762E-02-2.20165795E-03-1.02861413E-03
 3  9 3.68499091E-03 1.00309792E-03 2.22720344E-03-6.38560033E-03 1.81126467E-03
 3 10 5.61039076E-04-3.06636100E-04 6.12231981E-05 3.46810137E-04-7.17044919E-04
 3 11-5.24161724E-04-6.67431847E-05 9.32679590E-03-1.24707355E-03-2.25748225E-05
 3 12 1.78010958E-04-6.68876117E-04 2.34447419E-04 4.88878478E-04 3.86873800E-04
 4  1-3.37786142E-01 6.21677337E-02-9.99999610E-02 7.83823872E-01-1.48072130E-02
 4  2 1.11073705E-02-3.32819656E-01-4.00358078E-02 1.01805047E-01 7.35209597E-02
 4  3 1.53856089E-01-7.69145383E-02-1.49661048E-01 3.63063004E-03-5.97718697E-03
 4  4 6.35977971E-02-1.67862288E-01 7.54541107E-02-7.05119730E-04 1.52226056E-02
 4  5 4.32327382E-03 4.13662082E-03 2.51154245E-03-3.25205050E-03 3.03287902E-03
 4  6-1.37558810E-02 1.25783569E-03-4.86552824E-04 1.26516299E-03-2.26901851E-03
 4  7-1.89787551E-02-2.79291199E-02-1.08126437E-02 5.19894059E-03-2.86353539E-02
 4  8 8.59588675E-03-8.05617490E-02-2.33944092E-03-4.29899985E-03 7.62278015E-03
 4  9 2.53064940E-02-9.09321546E-03-1.79948734E-02 3.17701475E-02 8.87824551E-03
 4 10-9.71224933E-04-8.43525455E-03 9.46463134E-04 3.06843917E-04-4.20800847E-04
 4 11-6.92053965E-05-5.33834018E-04 1.09707819E-02-1.18312321E-03-2.99473392E-04
 4 12-6.11455673E-04 7.63002827E-04-4.42567543E-04-1.87049467E-03 7.38899847E-04
 5  1-1.09190504E-01-1.10489857E-01-7.94624068E-02-1.48072130E-02 4.49610672E-01
 5  2 3.02708860E-01 1.25692573E-01-1.16615339E-01-8.85808082E-02-1.14228409E-02
 5  3-4.47448434E-02 1.59050766E-02 4.71477193E-03-3.67576295E-02-2.04826819E-03
 5  4 2.99530376E-03-3.39615456E-02 1.02371474E-02-7.50311191E-04 2.30059891E-03
 5  5 7.79658209E-04 4.19796821E-04-2.23615258E-04-5.54424922E-04-1.67005809E-04
 5  6 3.21252814E-03 8.70049072E-04 6.93341728E-04-9.85405428E-04-6.83272097E-04
 5  7 2.00560382E-02 1.09548757E-02 6.87933268E-03-6.28293718E-03-5.27803297E-03
 5  8 2.57323104E-03-9.16680099E-04-1.24284121E-01-1.73121350E-01 6.78299671E-03
 5  9-7.71228151E-03 3.04982454E-03-1.82588694E-02 1.01877261E-02 6.72753533E-03
 5 10 9.33577808E-04 1.54306620E-03-4.81953678E-04 2.67254054E-04 2.94134018E-03
 5 11-4.08167578E-03-6.83563918E-04 7.98398347E-04-4.98170508E-04 1.55906207E-06
 5 12-1.81291676E-04-3.56020606E-04-7.72447250E-05-3.14213138E-04 1.37087921E-04
 6  1-1.21669044E-01-7.40247703E-02-1.87170309E-01 1.11073705E-02 3.02708860E-01
 6  2 7.38459363E-01 1.14214735E-01-8.46002728E-02-1.85075487E-01-4.45470128E-03
 6  3 2.73464056E-03 2.10522548E-03-1.81871217E-04 2.68874257E-02 3.57847423E-03
 6  4 5.44092709E-03 1.24133950E-04 2.27613370E-03 4.04052992E-05-2.09008884E-04
 6  5-1.71364296E-03-3.35696541E-04-1.54705987E-04 8.60800334E-04 5.23895325E-04
 6  6 3.79174008E-04-1.78284003E-03-5.02311197E-04-1.39535867E-04 8.11281116E-04
 6  7 1.69032084E-02 9.34450538E-03 9.68871803E-03-3.94313835E-02-2.14957031E-02
 6  8-2.26639880E-03-4.14063256E-03-1.50257937E-01-3.87689294E-01 3.79095540E-02
 6  9-2.35207303E-02-2.12073573E-03-1.55386471E-02 1.03546972E-02 9.13729095E-03
 6 10 5.35147836E-04 1.51080256E-03 2.53950464E-05-4.83716842E-05-1.66649931E-03
 6 11 6.72502467E-04-4.57991488E-04 1.86026925E-03 1.88887423E-05 8.61865164E-05
 6 12 5.70311956E-05 2.54721002E-04-9.35836867E-07 1.07573916E-04-7.00148185E-05
 7  1-8.06881641E-02-5.60784073E-02 1.20820304E-02-3.32819656E-01 1.25692573E-01
 7  2 1.14214735E-01 9.19426116E-01 6.99545687E-02-1.85082788E-02-7.87433183E-02
 7  3-7.90303003E-02 3.44621118E-02 6.23974721E-02 2.72043693E-04-3.82384074E-03
 7  4-3.78440510E-02 5.91723476E-02-3.14323217E-02 8.05888292E-04-6.69012685E-03
 7  5 1.94576251E-03-1.48790612E-03-9.09183547E-04 1.39195746E-03-1.30209882E-03
 7  6 7.16553859E-03-2.40938024E-03 2.80500777E-04 7.61475840E-04 2.48821299E-03
 7  7-5.11651513E-03-7.30880114E-04-3.68813225E-03 9.31357773E-04 7.70599303E-03
 7  8-1.43890087E-03 2.61506460E-03-6.65959650E-05-8.54996442E-03-8.74595201E-02
 7  9-1.35011075E-02 3.08875693E-02-3.65145783E-01-1.26749329E-01-1.27602211E-01
 7 10 1.70632608E-03 1.70026370E-02-2.85395706E-03-1.18323830E-04-1.98592516E-04
 7 11 2.62061818E-03 1.94389854E-03-5.27480984E-03 5.41621188E-04 1.33371220E-04
 7 12 4.69462887E-04-1.87567955E-04 4.85176279E-04 1.03340963E-03-1.39392608E-04
 8  1 6.80565704E-02 1.51572185E-01 1.28179920E-02-4.00358078E-02-1.16615339E-01
 8  2-8.46002728E-02 6.99545687E-02 1.63438861E-01 2.38264470E-01 9.92020401E-02
 8  3 1.46559200E-01-9.16833112E-02-1.77795724E-01-2.84055348E-02 1.78926030E-02
 8  4 6.69935862E-02-1.19790059E-01 7.14670582E-02 1.14500975E-03 1.15592215E-02
 8  5-6.36728219E-04 1.87546618E-03 4.60811418E-03-2.44722203E-03 1.09917394E-02
 8  6-4.60912812E-02-8.11048098E-03-6.64547902E-03 3.97981779E-03 5.86708358E-04
 8  7-4.16490543E-03-1.84987736E-03-1.51879972E-03 7.80139746E-04-2.12973727E-02
 8  8 3.69851347E-03 1.49285528E-02-3.64241631E-03 3.63240360E-04 6.94600892E-03
 8  9-4.02371577E-02-9.15299548E-02-1.08762562E-01-9.21811023E-02-6.69186145E-02
 8 10-3.73752283E-03-1.62185585E-02 2.13136241E-03 8.48426769E-04-1.61880985E-03
 8 11-1.08716389E-03-3.61210121E-04 8.99956692E-03-4.17174074E-04-3.13494867E-04
 8 12-1.10150919E-03 8.26710679E-04 9.48716721E-05-1.67131736E-03 9.00168889E-04
 9  1-1.50474822E-02 7.49147332E-03 1.27294057E-02 1.01805047E-01-8.85808082E-02
 9  2-1.85075487E-01-1.85082788E-02 2.38264470E-01 8.08636200E-01-1.67296419E-02
 9  3-1.71845355E-02-3.60116393E-02 2.14946816E-02 1.11717993E-02-3.86989528E-03
 9  4-5.33812629E-03 9.84726680E-04-3.97048023E-03-1.85269206E-03 1.79594674E-03
 9  5 2.38075773E-03 1.28797957E-03 2.01943675E-03-3.86837832E-04 1.66230588E-03
 9  6-8.29452852E-03 5.94978496E-03 8.35119325E-04-2.45431623E-04-2.47352785E-03
 9  7-2.47441348E-03-5.88874802E-03 1.26834711E-03 1.19451061E-03 4.38968768E-03
 9  8 1.00015865E-03 3.81228547E-02-1.73951114E-02-2.15028195E-03 2.80094423E-02
 9  9-7.21717566E-02-4.52227814E-01-1.34579362E-01-6.60161136E-02-1.42909875E-01
 9 10 1.15845467E-03 1.15750074E-02-2.16579742E-03-3.45897401E-04-5.89256451E-04
 9 11-5.69718737E-04-4.46686200E-04-7.70249646E-04-2.73541019E-04-1.90053934E-05
 9 12 4.28997127E-05-5.56522057E-05-2.28581888E-04-5.98661639E-04 1.75688402E-04
10  1-4.38584161E-02-7.40999910E-02 5.82291870E-04 7.35209597E-02-1.14228409E-02
10  2-4.45470128E-03-7.87433183E-02 9.92020401E-02-1.67296419E-02 9.46424075E-01
10  3-1.04410461E-01 6.85849500E-02-3.41997031E-01-1.86955278E-02 1.57614553E-01
10  4-8.15533073E-02 6.08084985E-02-2.74022944E-02 1.22948639E-03-4.33100789E-03
10  5 3.84333805E-03 5.69372041E-03-1.63139253E-02-2.98003588E-02-1.24078979E-01
10  6 1.60702025E-02-2.10199566E-02-9.11580918E-03 2.89230632E-02 5.48111511E-02
10  7 1.78925129E-03 3.12913342E-03-1.96529389E-03 1.45475044E-04 1.03930188E-02
10  8-8.39944387E-04 2.55316313E-04 1.89085832E-03 1.56117153E-03-8.03330686E-04
10  9-1.00394216E-02 2.78633277E-03 4.66943962E-04-1.72115134E-02 8.90352157E-03
10 10-3.42362184E-01 4.49450002E-02-1.83974974E-01 2.79354218E-03-4.18456344E-03
10 11-7.45860206E-03-3.85263918E-03-3.93968997E-03-4.04175852E-03 5.24185244E-04
10 12 7.39236067E-04 3.32599364E-04-6.47782251E-03-1.44961316E-03-1.33287438E-03
11  1-5.97063932E-02-1.07727995E-01-2.88800568E-03 1.53856089E-01-4.47448434E-02
11  2 2.73464056E-03-7.90303003E-02 1.46559200E-01-1.71845355E-02-1.04410461E-01
11  3 1.41326658E-01 1.45832184E-01 9.46634952E-02-5.91486765E-02-5.92239722E-03
11  4-5.16204474E-02 8.46312428E-02-6.04441237E-02-2.92411884E-03-1.15165750E-02
11  5 1.12889552E-02 4.27906581E-03 8.52681217E-03-6.09328310E-03-1.28764993E-02
11  6-9.60990495E-02-6.30763157E-02 2.20555820E-02 3.27983731E-03-2.45286687E-02
11  7-6.60911294E-04 3.38458465E-03-2.05320163E-03-1.16859742E-03 1.16419153E-02
11  8-2.46869245E-03-1.03777059E-03 5.40627380E-04 4.72924428E-05-2.41418815E-03
11  9-2.50946377E-02 6.48802570E-03 2.07660187E-03-1.76368994E-02 1.01577256E-02
11 10 2.72541512E-02-4.97856063E-02 1.14093097E-02 8.62630726E-03 8.55456371E-03
11 11-3.31780014E-03 2.14778754E-03 3.00295805E-05 1.21188051E-03 4.48658935E-04
11 12-1.44723522E-04-3.61371791E-05 4.41069524E-04 3.42512839E-03-1.15703720E-03
12  1 3.53291240E-02 6.93288118E-02 9.52955536E-04-7.69145383E-02 1.59050766E-02
12  2 2.10522548E-03 3.44621118E-02-9.16833112E-02-3.60116393E-02 6.85849500E-02
12  3 1.45832184E-01 6.82921114E-01 5.49114618E-02-3.11620544E-03-2.30930530E-01
12  4 1.46042538E-02-6.12775199E-02 6.30785872E-02 5.58903373E-03 3.92586033E-03
12  5-6.40569349E-03-2.84300674E-03-1.55130817E-02-1.52275220E-02-1.86723488E-02
12  6-8.87065492E-02-2.23258430E-01 2.59622181E-02-2.07307768E-02-2.22375839E-02
12  7-4.47631967E-04-2.49343889E-03 1.38243928E-03 2.31780444E-04-8.59157411E-03
12  8 1.45027222E-03 7.65037461E-05-2.59742057E-04-9.04049105E-04 3.27834039E-03
12  9 2.85896071E-02-7.58905678E-03-9.65702855E-04-6.97293146E-04-1.58029481E-04
12 10-1.76241761E-01 1.22777885E-02-1.98684430E-01 3.91893093E-02 8.85191237E-03
12 11-6.63253939E-03-4.49857023E-03 6.76523136E-03-4.16162959E-03 5.34671856E-04
12 12 1.00912316E-03 4.58377085E-04-2.17047595E-03 5.82277258E-04-1.47021843E-04
13  1 7.03431372E-02 1.71025301E-01-1.20443476E-02-1.49661048E-01 4.71477193E-03
13  2-1.81871217E-04 6.23974721E-02-1.77795724E-01 2.14946816E-02-3.41997031E-01
13  3 9.46634952E-02 5.49114618E-02 7.74547975E-01-1.29888381E-02-9.34971594E-03
13  4-3.12171075E-01-8.87091087E-02-7.35926383E-02 1.27455849E-02 1.24602455E-02
13  5-2.27564033E-02-4.92111950E-03 1.01213428E-03 6.55415090E-04 2.68950004E-03
13  6-1.14161898E-02 3.22412869E-02 4.67617209E-03-2.35341949E-03-9.43601640E-03
13  7-3.85743709E-04-5.97613354E-03 3.22766589E-03 1.12710822E-03-1.79910817E-02
13  8 4.36841399E-03 3.18023243E-04-3.54944418E-04 4.35073815E-04 2.30674990E-03
13  9 1.65450677E-02-4.55951609E-03-1.93524349E-04 7.47111054E-03-4.33238188E-03
13 10-1.96757789E-02-1.93318322E-02 2.42545435E-02-8.13178845E-02 4.26527552E-03
13 11 1.88809091E-02-1.87940535E-02 2.40929971E-02-2.74351338E-02-5.77181312E-04
13 12 1.55024205E-03 3.68409071E-03-1.45747926E-03-8.85899137E-04-4.65741675E-04
14  1-8.02988006E-03-4.05387151E-02 1.20191661E-02 3.63063004E-03-3.67576295E-02
14  2 2.68874257E-02 2.72043693E-04-2.84055348E-02 1.11717993E-02-1.86955278E-02
14  3-5.91486765E-02-3.11620544E-03-1.29888381E-02 2.61392348E-01 4.05118797E-02
14  4 2.99820908E-02-5.32613739E-02 7.07993639E-03-1.30855440E-02-2.14208380E-04
14  5-1.80903597E-02-3.38030773E-03 4.67214762E-04-6.45652251E-04 1.74913506E-02
14  6 1.81737739E-03-1.00391991E-02-5.99948935E-04-1.97892323E-03-3.51829179E-03
14  7 6.60060183E-04 1.00370263E-03-1.53979497E-04 5.36301968E-04 1.57597354E-03
14  8-1.69665128E-04 1.84004989E-04 5.25742728E-03 1.25726712E-03-6.48972659E-04
14  9 7.02559400E-04 1.92556942E-04-4.58384241E-04 3.94656286E-04 1.96020844E-04
14 10 7.41217356E-03 2.60247170E-03-2.53145231E-03 3.96603859E-03-5.59685502E-02
14 11-5.43536143E-02-7.21011282E-03 1.29049851E-03-3.30933672E-03 9.07142430E-04
14 12-5.18148748E-04-3.47521488E-03 5.59113477E-05 2.88123202E-04 8.64003685E-05
15  1 1.10048322E-02 3.01686226E-02-3.66110843E-03-5.97718697E-03-2.04826819E-03
15  2 3.57847423E-03-3.82384074E-03 1.78926030E-02-3.86989528E-03 1.57614553E-01
15  3-5.92239722E-03-2.30930530E-01-9.34971594E-03 4.05118797E-02 9.66369745E-01
15  4-1.64749706E-01-3.59736584E-03-2.53309895E-01-3.23093321E-02 8.38997756E-03
15  5-3.37988996E-02-3.61470258E-03 1.11817120E-03 4.00272907E-03 3.67790959E-02
15  6 1.13150451E-02-1.82594791E-02-9.93526385E-04-5.00479571E-03-4.93512278E-03
15  7-8.12061043E-04-1.70995705E-03 1.07605393E-03-2.22970599E-04-3.80759876E-03
15  8 2.44464600E-04-5.04340399E-05-6.40766002E-04-1.24252345E-03 1.76158856E-04
15  9-1.94061977E-03 1.72696060E-04 7.07143681E-04-1.32328037E-03 8.46152846E-04
15 10-2.50531614E-02-3.57502608E-03 1.78512335E-02 1.87306228E-02-7.53069126E-02
15 11-4.58158202E-01 2.07035446E-02-2.51100843E-03 1.72184819E-02 1.20420084E-03
15 12-2.43857268E-03-4.36072895E-03 3.68735057E-05 4.30081027E-04 1.16691887E-03
16  1-7.89584802E-02-8.60065987E-02 8.45136637E-03 6.35977971E-02 2.99530376E-03
16  2 5.44092709E-03-3.78440510E-02 6.69935862E-02-5.33812629E-03-8.15533073E-02
16  3-5.16204474E-02 1.46042538E-02-3.12171075E-01 2.99820908E-02-1.64749706E-01
16  4 9.52916713E-01 6.75569006E-02-4.21641377E-02-1.38589370E-01-1.03897693E-02
16  5 1.76131188E-02 9.24707069E-03 1.85398154E-02 3.45528951E-02 2.79942789E-04
16  6 2.55272583E-03-4.54703870E-03 5.87364893E-04-3.68835582E-04 1.50677116E-03
16  7 1.08985784E-03 1.48449011E-02-7.11115166E-03 1.72188503E-04 1.06132600E-02
16  8-3.13476084E-03-4.86901045E-05-1.44907521E-03-1.93257130E-03-3.98201254E-04
16  9-8.79222337E-03 8.05485294E-04 1.79509054E-03-3.93306025E-03 2.62978065E-03
16 10-4.64378357E-03 3.39083487E-03 4.26223010E-03 6.26961022E-03 3.18814708E-03
16 11 9.66248399E-03-3.84776768E-01-4.73780070E-02 1.59722604E-01 8.18837077E-03
16 12-1.51778593E-02-3.02586749E-02-5.16023886E-03 4.45822366E-03-1.49010465E-05
17  1 9.46843963E-02 1.58818957E-01-7.20532276E-03-1.67862288E-01-3.39615456E-02
17  2 1.24133950E-04 5.91723476E-02-1.19790059E-01 9.84726680E-04 6.08084985E-02
17  3 8.46312428E-02-6.12775199E-02-8.87091087E-02-5.32613739E-02-3.59736584E-03
17  4 6.75569006E-02 1.23782988E-01 1.38806303E-01-1.20112615E-02-9.03298348E-02
17  5-6.80092557E-02 2.05431162E-02 1.55370770E-03-1.77875008E-02-5.57870178E-03
17  6-1.93968814E-02 1.62041084E-02 3.39068032E-03 1.63352661E-03-5.80526499E-03
17  7-3.44967059E-03-1.60322768E-02 8.45275660E-03 1.27290152E-03-2.99574483E-02
17  8 7.46486047E-03 9.87584347E-04-1.18894729E-03 1.13316214E-03 2.53426378E-03
17  9 1.21947554E-02-2.77307959E-03 6.49913618E-04 4.37004510E-03-3.14104190E-03
17 10-2.25999607E-03 1.72170142E-03 2.94650649E-04-8.24199811E-03 6.57781323E-03
17 11-4.90542553E-03-2.69595122E-02-4.32911295E-02 8.12269852E-03 3.41452754E-03
17 12 2.81987881E-03-2.60291914E-03 5.64601266E-05 9.10219927E-03-4.48250589E-03
18  1-3.74897082E-02-8.80354019E-02-4.00458053E-02 7.54541107E-02 1.02371474E-02
18  2 2.27613370E-03-3.14323217E-02 7.14670582E-02-3.97048023E-03-2.74022944E-02
18  3-6.04441237E-02 6.30785872E-02-7.35926383E-02 7.07993639E-03-2.53309895E-01
18  4-4.21641377E-02 1.38806303E-01 7.13906122E-01-6.02194495E-03-1.07130080E-01
18  5-2.72329429E-01 1.48879889E-02-1.09309331E-02-2.33209947E-02-2.44115218E-03
18  6 9.93363872E-03-3.13951216E-03-9.25975325E-04-1.13712476E-03 2.17495535E-04
18  7 4.65225161E-04-2.75765473E-03 6.34006059E-04-1.09321647E-03 3.00888465E-02
18  8-6.92484704E-03-8.79186757E-05-2.90094611E-05-1.48144310E-03-6.28851222E-04
18  9-7.33310978E-03 1.50161479E-03 3.97725478E-04-3.26913478E-03 1.68506272E-03
18 10 4.78865595E-03 5.09329517E-03-3.89871331E-03-3.61490809E-02 1.15174154E-02
18 11-9.94504327E-03 1.54731914E-01 8.03641480E-03-1.57544771E-01 8.96313655E-03
18 12-6.19387301E-03-9.90140748E-03-2.60172952E-04-4.99928825E-03 2.51390606E-03
19  1 1.37326219E-03 7.30470075E-03-7.76200695E-04-7.05119730E-04-7.50311191E-04
19  2 4.04052992E-05 8.05888292E-04 1.14500975E-03-1.85269206E-03 1.22948639E-03
19  3-2.92411884E-03 5.58903373E-03 1.27455849E-02-1.30855440E-02-3.23093321E-02
19  4-1.38589370E-01-1.20112615E-02-6.02194495E-03 1.16136538E+00-1.17156129E-01
19  5-6.70076176E-02-6.17406710E-01 1.56524069E-01 2.33891275E-01-5.37465247E-02
19  6 1.22552567E-02 1.40678000E-02 4.46898491E-03-3.96555164E-03-7.79956680E-03
19  7-3.54339995E-05-1.51639447E-04 2.93751894E-05 1.72104686E-03 1.09367154E-03
19  8 9.04467142E-04 4.81565609E-05-1.03560804E-04 4.09556762E-04-3.81945965E-05
19  9 2.82551948E-04 2.48047333E-04 2.88607647E-05-1.71521273E-04 1.20518358E-04
19 10 6.02776253E-04 1.43722200E-03 5.18981106E-04-5.20184950E-03 3.62520087E-03
19 11-3.10936393E-03 6.34144954E-03 1.78062982E-02 3.36089643E-02-3.78955393E-01
19 12-4.63558924E-02-1.64019432E-01 3.94691522E-03-4.79849979E-03-6.53211520E-03
20  1-6.51818032E-03-4.67074323E-02-1.00046148E-02 1.52226056E-02 2.30059891E-03
20  2-2.09008884E-04-6.69012685E-03 1.15592215E-02 1.79594674E-03-4.33100789E-03
20  3-1.15165750E-02 3.92586033E-03 1.24602455E-02-2.14208380E-04 8.38997756E-03
20  4-1.03897693E-02-9.03298348E-02-1.07130080E-01-1.17156129E-01 3.25966694E-01
20  5 2.40708916E-01 1.38633381E-01-1.37527083E-01-1.07271105E-01 1.02146415E-02
20  6 1.22431587E-02 1.05764075E-02-8.13634860E-03 2.23072515E-04-1.06160847E-03
20  7 3.44259154E-04-5.75102168E-04-6.67799851E-05 2.40343446E-04-3.86536730E-03
20  8-4.24942993E-03 6.89583932E-05 7.28835612E-04-6.56921511E-04-6.69585846E-04
20  9-1.75547100E-03-3.16625772E-05 1.51687428E-04-3.26018376E-04 1.93782900E-04
20 10 3.54115854E-04-3.22291790E-04-4.90457476E-04 3.64576835E-03 6.00687470E-03
20 11 1.01593247E-03-7.72256230E-04-5.87785448E-04 6.00424074E-03-4.48871925E-02
20 12-6.97595710E-02-3.47794903E-02 1.82143653E-02 4.45807683E-03-6.66058218E-03
21  1-1.99921332E-03-1.55577459E-02 5.21443341E-03 4.32327382E-03 7.79658209E-04
21  2-1.71364296E-03 1.94576251E-03-6.36728219E-04 2.38075773E-03 3.84333805E-03
21  3 1.12889552E-02-6.40569349E-03-2.27564033E-02-1.80903597E-02-3.37988996E-02
21  4 1.76131188E-02-6.80092557E-02-2.72329429E-01-6.70076176E-02 2.40708916E-01
21  5 7.13103987E-01 2.03277993E-01-1.08889938E-01-2.57625256E-01 3.49811571E-03
21  6 9.91762904E-03 3.24258092E-02-1.34367416E-02-1.61187658E-03-3.66377121E-03
21  7 5.30695014E-04 1.15128960E-03-7.45749543E-04-8.40983126E-05 2.97695831E-03
21  8 6.85305581E-04 8.69762139E-05 2.10852317E-04 2.10201174E-04-1.94860567E-04
21  9 1.01176063E-03 1.90186324E-04-4.02347044E-04 1.13381996E-03-1.00759113E-03
21 10 7.62342247E-04-7.20317514E-04-1.05329692E-03-1.61130716E-03-2.93592096E-03
21 11-6.57341885E-04-6.34982293E-03-1.14155375E-02-1.10196978E-02-1.58058600E-01
21 12-3.44951392E-02-1.58114485E-01 3.60187722E-02-6.81657004E-03-6.07630681E-03
22  1-2.36246473E-03-1.00525785E-02 2.39414400E-03 4.13662082E-03 4.19796821E-04
22  2-3.35696541E-04-1.48790612E-03 1.87546618E-03 1.28797957E-03 5.69372041E-03
22  3 4.27906581E-03-2.84300674E-03-4.92111950E-03-3.38030773E-03-3.61470258E-03
22  4 9.24707069E-03 2.05431162E-02 1.48879889E-02-6.17406710E-01 1.38633381E-01
22  5 2.03277993E-01 9.86629856E-01-1.49143427E-01-1.66379743E-01-2.05858573E-01
22  6-2.77395135E-02-7.47095207E-02-7.98717673E-02 4.86528683E-03-8.00552324E-03
22  7 3.58329636E-04 7.46024734E-04-1.58519045E-04-1.81591758E-04-5.48024923E-04
22  8 2.28740437E-04 2.26426494E-04 1.45274742E-04-1.03262288E-04-3.85399005E-04
22  9-2.12352560E-04-6.16769606E-04 2.11898272E-05 1.42822662E-04-3.57353202E-04
22 10-8.90053666E-05 2.01785839E-04 1.93957261E-03 3.62022025E-04-1.00270309E-03
22 11 2.18978286E-04 3.54784383E-04-2.58542532E-03-1.91533341E-03-1.72300847E-02
22 12 1.28419721E-02 2.44470799E-02-7.72357430E-02 9.97046380E-03 1.03568279E-02
23  1-4.08874035E-04-2.28725151E-03-4.68687503E-04 2.51154245E-03-2.23615258E-04
23  2-1.54705987E-04-9.09183547E-04 4.60811418E-03 2.01943675E-03-1.63139253E-02
23  3 8.52681217E-03-1.55130817E-02 1.01213428E-03 4.67214762E-04 1.11817120E-03
23  4 1.85398154E-02 1.55370770E-03-1.09309331E-02 1.56524069E-01-1.37527083E-01
23  5-1.08889938E-01-1.49143427E-01 3.31721110E-01 3.41916021E-01-3.14005101E-02
23  6-1.07528567E-01-3.47349711E-02 1.99342291E-02 2.20545672E-02 1.72899447E-03
23  7-1.23924305E-04-2.00910858E-04-2.86942396E-04-1.01176612E-04-9.19115639E-05
23  8-1.02621738E-03-1.19601697E-04 3.70920422E-05 1.53904702E-05-1.25011374E-04
23  9-8.57614916E-04 4.42137060E-05 5.56610874E-06 4.35693744E-04-2.99892859E-04
23 10 1.52701633E-03-3.61990382E-04-3.39255621E-03 2.97149812E-04-6.04964096E-04
23 11 2.18816047E-04-1.15779283E-03-1.27559518E-04-2.42676384E-03-6.86885660E-03
23 12 1.39940256E-02-7.10404362E-04 6.32083727E-03-1.33586924E-01-1.68224395E-01
24  1 2.15753056E-03 6.21951329E-03-1.35104986E-03-3.25205050E-03-5.54424922E-04
24  2 8.60800334E-04 1.39195746E-03-2.44722203E-03-3.86837832E-04-2.98003588E-02
24  3-6.09328310E-03-1.52275220E-02 6.55415090E-04-6.45652251E-04 4.00272907E-03
24  4 3.45528951E-02-1.77875008E-02-2.33209947E-02 2.33891275E-01-1.07271105E-01
24  5-2.57625256E-01-1.66379743E-01 3.41916021E-01 8.30977580E-01-7.63661009E-02
24  6-3.93301926E-02-1.84843028E-01 1.75343811E-02 7.67098287E-04 2.85117779E-02
24  7-2.17246026E-04-3.32184447E-04 3.63319995E-04-3.45848943E-05-3.53579203E-04
24  8 2.81360967E-04-2.24227312E-06-1.98569984E-05 8.35387672E-05-4.81141437E-05
24  9-4.45755134E-04-4.68420925E-05 9.27306062E-05 1.05852680E-04 2.84303060E-04
24 10 1.63681695E-03-3.71444529E-03-3.89880102E-03-1.86316894E-04-5.67345570E-04
24 11 1.23280578E-03-1.21519004E-03-2.12335082E-03-5.14937105E-03-2.07864768E-02
24 12 2.25537225E-03 1.57973048E-02 6.37570009E-03-1.69578134E-01-3.90546336E-01
25  1-1.34178685E-03 7.02332396E-04-1.79004730E-03 3.03287902E-03-1.67005809E-04
25  2 5.23895325E-04-1.30209882E-03 1.09917394E-02 1.66230588E-03-1.24078979E-01
25  3-1.28764993E-02-1.86723488E-02 2.68950004E-03 1.74913506E-02 3.67790959E-02
25  4 2.79942789E-04-5.57870178E-03-2.44115218E-03-5.37465247E-02 1.02146415E-02
25  5 3.49811571E-03-2.05858573E-01-3.14005101E-02-7.63661009E-02 1.14895125E+00
25  6-1.87980824E-01-2.10716980E-01-7.77954286E-01 2.13033353E-01 2.91647331E-01
25  7-1.70060260E-04-4.58602324E-04-1.71167540E-04-1.81767708E-04 8.48183190E-04
25  8-5.88849036E-04-4.74102426E-04 8.14683169E-05-1.49612583E-04 2.16046119E-03
25  9-2.35758770E-03 1.32890773E-03 1.63015543E-04-1.77335993E-04 4.90801993E-04
25 10 9.07918464E-03-1.45978584E-02-3.03601278E-02-6.24065763E-03 7.53662444E-07
25 11 9.77410071E-04 2.96128223E-04-1.25602666E-03-1.57413603E-03-1.62919607E-03
25 12 1.24159476E-03-5.68151021E-04 6.32641163E-03 2.24639729E-03 6.49035196E-03
26  1 7.04507543E-03 9.61572893E-03-2.08433719E-04-1.37558810E-02 3.21252814E-03
26  2 3.79174008E-04 7.16553859E-03-4.60912812E-02-8.29452852E-03 1.60702025E-02
26  3-9.60990495E-02-8.87065492E-02-1.14161898E-02 1.81737739E-03 1.13150451E-02
26  4 2.55272583E-03-1.93968814E-02 9.93363872E-03 1.22552567E-02 1.22431587E-02
26  5 9.91762904E-03-2.77395135E-02-1.07528567E-01-3.93301926E-02-1.87980824E-01
26  6 3.68315278E-01 2.24098077E-01 2.14825230E-01-1.42184076E-01-1.09621616E-01
26  7-2.79986255E-04-6.61300567E-04 2.02049464E-04 8.91661829E-05-1.11559715E-03
26  8-8.09901923E-05-1.53694262E-04 2.95911913E-04-5.70758833E-04 9.04982964E-04
26  9-4.11666067E-03-3.20319612E-03-3.46522904E-04 3.01196118E-05 2.61814634E-04
26 10-3.02620149E-04 1.47313019E-03 6.80818476E-03-4.45645801E-03 6.05231067E-03
26 11 9.86521354E-04-4.10220863E-04 2.49861631E-04-3.08412690E-04 2.13152384E-03
26 12 1.26624028E-02-8.61701508E-03-1.61979506E-02 1.22651931E-03-4.96178180E-03
27  1-3.92287060E-03-4.85393889E-03-1.94809133E-03 1.25783569E-03 8.70049072E-04
27  2-1.78284003E-03-2.40938024E-03-8.11048098E-03 5.94978496E-03-2.10199566E-02
27  3-6.30763157E-02-2.23258430E-01 3.22412869E-02-1.00391991E-02-1.82594791E-02
27  4-4.54703870E-03 1.62041084E-02-3.13951216E-03 1.40678000E-02 1.05764075E-02
27  5 3.24258092E-02-7.47095207E-02-3.47349711E-02-1.84843028E-01-2.10716980E-01
27  6 2.24098077E-01 6.46845757E-01 2.94638638E-01-1.07755723E-01-2.29616866E-01
27  7 3.26218013E-04 4.42592456E-04-1.03936119E-03-1.80509455E-04 2.97320989E-03
27  8-2.03648342E-04-9.15213793E-05-4.51048595E-04 1.16693989E-04-1.55402086E-04
27  9 4.05408611E-03 7.68220772E-04-2.42525665E-04 7.17855836E-04-8.43530588E-04
27 10 6.98254626E-03-1.11260094E-02-1.27465076E-02-1.53884612E-03-4.90707055E-03
27 11 3.90954884E-04-7.91793597E-04-1.20464372E-03-2.00712934E-03 1.40077507E-03
27 12-9.96813729E-03-1.80723910E-03-3.05880393E-02-3.70837687E-03-5.00203791E-03
28  1 3.74744098E-04-1.75555113E-03 1.11645098E-03-4.86552824E-04 6.93341728E-04
28  2-5.02311197E-04 2.80500777E-04-6.64547902E-03 8.35119325E-04-9.11580918E-03
28  3 2.20555820E-02 2.59622181E-02 4.67617209E-03-5.99948935E-04-9.93526385E-04
28  4 5.87364893E-04 3.39068032E-03-9.25975325E-04 4.46898491E-03-8.13634860E-03
28  5-1.34367416E-02-7.98717673E-02 1.99342291E-02 1.75343811E-02-7.77954286E-01
28  6 2.14825230E-01 2.94638638E-01 8.54765708E-01-2.43612312E-01-3.28762755E-01
28  7 9.59116946E-05 2.38864385E-04-6.72433235E-05-2.57946085E-05-1.30691619E-04
28  8 1.06683690E-04 1.94037146E-04-1.37901301E-04-8.91154358E-05-3.56238097E-04
28  9 7.68159085E-04-4.36715786E-04-1.66559479E-04 4.29466040E-04-2.48056788E-04
28 10-2.11243653E-04-1.28088715E-03 3.98739100E-04-1.18770644E-04-1.01829974E-03
28 11 4.38485051E-04 1.02900714E-04 1.76915341E-05 4.27028431E-04-1.62106789E-03
28 12 4.71586929E-04 2.14847351E-03 4.38159356E-03 4.91810540E-04 1.85684699E-03
29  1-9.79518405E-04-7.81143705E-04 1.92603816E-04 1.26516299E-03-9.85405428E-04
29  2-1.39535867E-04 7.61475840E-04 3.97981779E-03-2.45431623E-04 2.89230632E-02
29  3 3.27983731E-03-2.07307768E-02-2.35341949E-03-1.97892323E-03-5.00479571E-03
29  4-3.68835582E-04 1.63352661E-03-1.13712476E-03-3.96555164E-03 2.23072515E-04
29  5-1.61187658E-03 4.86528683E-03 2.20545672E-02 7.67098287E-04 2.13033353E-01
29  6-1.42184076E-01-1.07755723E-01-2.43612312E-01 1.16880564E-01 1.32292752E-01
29  7 7.22931905E-05 1.43271556E-04 2.05461734E-05 7.20772198E-05-1.13620296E-04
29  8 5.33358757E-05 1.07191784E-04 1.00995250E-04 1.59936993E-04-3.76935252E-04
29  9-1.72849626E-04-1.60550794E-04-3.18819329E-05 1.55139679E-04-1.86683003E-05
29 10-1.28455089E-04 5.00144672E-05 1.53179947E-03 1.84921599E-03 8.30281192E-05
29 11-4.43268254E-04 8.43755646E-05 1.76410940E-04 2.61219731E-04-6.97822461E-05